
Gurobi 10.0.1 (linux64) logging started Sun Nov 26 15:37:25 2023

Set parameter LogFile to value "ArtificialInstance/ExperimentV2/S3T4K1/AdSp/gurobi1.txt"
Gurobi Optimizer version 10.0.1 build v10.0.1rc0 (linux64)

CPU model: AMD EPYC 7H12 64-Core Processor, instruction set [SSE2|AVX|AVX2]
Thread count: 128 physical cores, 128 logical processors, using up to 32 threads

Academic license 656792 - for non-commercial use only - registered to b.___@student.vu.nl
Optimize a model with 3708 rows, 3524 columns and 13318 nonzeros
Model fingerprint: 0x6431cb3d
Variable types: 0 continuous, 3524 integer (3524 binary)
Coefficient statistics:
  Matrix range     [1e+00, 1e+00]
  Objective range  [1e+00, 2e+01]
  Bounds range     [1e+00, 1e+00]
  RHS range        [1e+00, 1e+00]
Presolve removed 376 rows and 352 columns
Presolve time: 0.05s
Presolved: 3332 rows, 3172 columns, 12250 nonzeros
Variable types: 0 continuous, 3172 integer (3172 binary)
Found heuristic solution: objective 602.9250602

Root relaxation: objective 4.345069e+01, 1838 iterations, 0.05 seconds (0.04 work units)

    Nodes    |    Current Node    |     Objective Bounds      |     Work
 Expl Unexpl |  Obj  Depth IntInf | Incumbent    BestBd   Gap | It/Node Time

     0     0   43.45069    0  227  602.92506   43.45069  92.8%     -    0s
H    0     0                     447.1055360   43.45069  90.3%     -    0s
H    0     0                     148.7694497   43.45069  70.8%     -    0s
H    0     0                      47.7027189   43.45069  8.91%     -    0s
     0     0   44.53516    0  235   47.70272   44.53516  6.64%     -    0s
     0     0   44.53516    0  209   47.70272   44.53516  6.64%     -    0s
     0     0   45.22369    0  216   47.70272   45.22369  5.20%     -    0s
     0     0   46.25039    0  317   47.70272   46.25039  3.04%     -    0s
     0     0   46.25039    0  176   47.70272   46.25039  3.04%     -    0s
     0     0   46.31857    0  216   47.70272   46.31857  2.90%     -    0s
     0     0   46.31857    0  191   47.70272   46.31857  2.90%     -    0s
     0     0   47.70111    0  366   47.70272   47.70111  0.00%     -    0s

Cutting planes:
  Gomory: 12
  Zero half: 7

Explored 1 nodes (6680 simplex iterations) in 0.52 seconds (0.29 work units)
Thread count was 32 (of 128 available processors)

Solution count 4: 47.7027 148.769 447.106 602.925 

Optimal solution found (tolerance 1.00e-04)
Best objective 4.770271886053e+01, best bound 4.770110685271e+01, gap 0.0034%
